proyfinal/src/viki/013/andrea/andrea-localstore/experimentInOfficeAgust.take6/worker_1/aef80846-e382-47a3-9b9f-2506f0509242.als.cnf.out
Reading from standard input... Use '--help' for help.
============================[ Problem Statistics ]=============================
|                                                                             |
|  Number of variables:         87638                                         |
|  Number of clauses:          161767                                         |
|  Parse time:                   0.03 s                                       |
|                                                                             |
============================[ Search Statistics ]==============================
| Conflicts |          ORIGINAL         |          LEARNT          | Progress |
|           |    Vars  Clauses Literals |    Limit  Clauses Lit/Cl |          |
===============================================================================
|       100 |   63986   110883   277038 |    40657      100     16 | 26.988 % |
|       250 |   63986   110883   277038 |    44722      250     53 | 26.988 % |
|       475 |   63986   110883   277038 |    49195      475     59 | 26.988 % |
|       812 |   63986   110883   277038 |    54114      812     54 | 26.988 % |
|      1318 |   63914   110809   276867 |    59526     1315     98 | 27.070 % |
|      2077 |   63913   110541   276265 |    65478     2069    102 | 27.072 % |
|      3216 |   63913   110541   276265 |    72026     3208     92 | 27.072 % |
|      4924 |   63856   110465   276089 |    79229     4913     96 | 27.137 % |
|      7486 |   63856   110313   275731 |    87152     7474     98 | 27.137 % |
|     11330 |   63700   109683   274247 |    95867    11306    100 | 27.315 % |
|     17096 |   63700   109683   274247 |   105454    17072     99 | 27.315 % |
===============================================================================
restarts              : 70
conflicts             : 20316          (5940 /sec)
decisions             : 74307          (0.00 % random) (21727 /sec)
propagations          : 29054784       (8495514 /sec)
conflict literals     : 2041026        (51.87 % deleted)
Memory used           : 39.38 MB
CPU time              : 3.42002 s

INDETERMINATE
